mixintcount/benchmarks/random_v2l/7_7_177.in
28 9
#	x1	x2	x3	x4	x5	x6	x7;		0 = Real; 1 = Integer
	1	1	1	1	1	1	1
1	5	7	-8	-9	8	-1	5	92
1	-5	9	9	-5	4	10	-3	-78
1	6	8	-3	-2	-9	5	-5	-58
1	2	-7	-4	6	-4	9	3	155
1	5	3	-10	1	-9	4	7	-5
1	2	3	0	-7	2	5	8	9
1	2	-5	3	3	8	9	-9	101
1	-9	-5	-7	-2	-7	4	-3	45
1	-6	-5	-4	-6	9	-9	-2	92
1	4	6	1	-4	1	-1	1	-25
1	2	-6	2	-3	-8	1	4	-151
1	4	7	-1	7	-2	4	0	122
1	10	7	5	8	6	-8	-4	12
1	7	5	3	-5	-9	-6	-5	-126
1	1	0	0	0	0	0	0	177
1	-1	0	0	0	0	0	0	177
1	0	1	0	0	0	0	0	177
1	0	-1	0	0	0	0	0	177
1	0	0	1	0	0	0	0	177
1	0	0	-1	0	0	0	0	177
1	0	0	0	1	0	0	0	177
1	0	0	0	-1	0	0	0	177
1	0	0	0	0	1	0	0	177
1	0	0	0	0	-1	0	0	177
1	0	0	0	0	0	1	0	177
1	0	0	0	0	0	-1	0	177
1	0	0	0	0	0	0	1	177
1	0	0	0	0	0	0	-1	177
